c CNF file corresponding to a (partial) station packing problem.
p cnf 3456 238
1 2 3 4 5 6 7 8 9 10 11 12 13 14 0
-1 -2 0
-1 -3 0
-1 -4 0
-1 -5 0
-1 -6 0
-1 -7 0
-1 -8 0
-1 -9 0
-1 -10 0
-1 -11 0
-1 -12 0
-1 -13 0
-1 -14 0
-2 -3 0
-2 -4 0
-2 -5 0
-2 -6 0
-2 -7 0
-2 -8 0
-2 -9 0
-2 -10 0
-2 -11 0
-2 -12 0
-2 -13 0
-2 -14 0
-3 -4 0
-3 -5 0
-3 -6 0
-3 -7 0
-3 -8 0
-3 -9 0
-3 -10 0
-3 -11 0
-3 -12 0
-3 -13 0
-3 -14 0
-4 -5 0
-4 -6 0
-4 -7 0
-4 -8 0
-4 -9 0
-4 -10 0
-4 -11 0
-4 -12 0
-4 -13 0
-4 -14 0
-5 -6 0
-5 -7 0
-5 -8 0
-5 -9 0
-5 -10 0
-5 -11 0
-5 -12 0
-5 -13 0
-5 -14 0
-6 -7 0
-6 -8 0
-6 -9 0
-6 -10 0
-6 -11 0
-6 -12 0
-6 -13 0
-6 -14 0
-7 -8 0
-7 -9 0
-7 -10 0
-7 -11 0
-7 -12 0
-7 -13 0
-7 -14 0
-8 -9 0
-8 -10 0
-8 -11 0
-8 -12 0
-8 -13 0
-8 -14 0
-9 -10 0
-9 -11 0
-9 -12 0
-9 -13 0
-9 -14 0
-10 -11 0
-10 -12 0
-10 -13 0
-10 -14 0
-11 -12 0
-11 -13 0
-11 -14 0
-12 -13 0
-12 -14 0
-13 -14 0
-3454 -13 0
-1 -3442 0
-8 -3451 0
-9 -3450 0
-3444 -5 0
-3454 -14 0
-3448 -6 0
-12 -3456 0
-3454 -12 0
-3450 -11 0
-3452 -13 0
-3 -3447 0
-2 -3443 0
-3453 -11 0
-10 -3455 0
-11 -3452 0
-3446 -7 0
-3447 -5 0
-9 -3451 0
-3455 -13 0
-14 -3456 0
-3448 -9 0
-7 -3449 0
-3455 -12 0
-3446 -4 0
-1 -3443 0
-3449 -6 0
-3446 -5 0
-4 -3449 0
-10 -3452 0
-3 -3444 0
-2 -3442 0
-7 -3448 0
-3453 -10 0
-1 -3445 0
-8 -3453 0
-3445 -3 0
-3447 -4 0
-8 -3450 0
-6 -3451 0
3442 3443 3444 3445 3446 3447 3448 3449 3450 3451 3452 3453 3454 3455 3456 0
-3442 -3443 0
-3442 -3444 0
-3442 -3445 0
-3442 -3446 0
-3442 -3447 0
-3442 -3448 0
-3442 -3449 0
-3442 -3450 0
-3442 -3451 0
-3442 -3452 0
-3442 -3453 0
-3442 -3454 0
-3442 -3455 0
-3442 -3456 0
-3443 -3444 0
-3443 -3445 0
-3443 -3446 0
-3443 -3447 0
-3443 -3448 0
-3443 -3449 0
-3443 -3450 0
-3443 -3451 0
-3443 -3452 0
-3443 -3453 0
-3443 -3454 0
-3443 -3455 0
-3443 -3456 0
-3444 -3445 0
-3444 -3446 0
-3444 -3447 0
-3444 -3448 0
-3444 -3449 0
-3444 -3450 0
-3444 -3451 0
-3444 -3452 0
-3444 -3453 0
-3444 -3454 0
-3444 -3455 0
-3444 -3456 0
-3445 -3446 0
-3445 -3447 0
-3445 -3448 0
-3445 -3449 0
-3445 -3450 0
-3445 -3451 0
-3445 -3452 0
-3445 -3453 0
-3445 -3454 0
-3445 -3455 0
-3445 -3456 0
-3446 -3447 0
-3446 -3448 0
-3446 -3449 0
-3446 -3450 0
-3446 -3451 0
-3446 -3452 0
-3446 -3453 0
-3446 -3454 0
-3446 -3455 0
-3446 -3456 0
-3447 -3448 0
-3447 -3449 0
-3447 -3450 0
-3447 -3451 0
-3447 -3452 0
-3447 -3453 0
-3447 -3454 0
-3447 -3455 0
-3447 -3456 0
-3448 -3449 0
-3448 -3450 0
-3448 -3451 0
-3448 -3452 0
-3448 -3453 0
-3448 -3454 0
-3448 -3455 0
-3448 -3456 0
-3449 -3450 0
-3449 -3451 0
-3449 -3452 0
-3449 -3453 0
-3449 -3454 0
-3449 -3455 0
-3449 -3456 0
-3450 -3451 0
-3450 -3452 0
-3450 -3453 0
-3450 -3454 0
-3450 -3455 0
-3450 -3456 0
-3451 -3452 0
-3451 -3453 0
-3451 -3454 0
-3451 -3455 0
-3451 -3456 0
-3452 -3453 0
-3452 -3454 0
-3452 -3455 0
-3452 -3456 0
-3453 -3454 0
-3453 -3455 0
-3453 -3456 0
-3454 -3455 0
-3454 -3456 0
-3455 -3456 0
